 &CONTROL
                       title = 'Lead' ,
                 calculation = 'scf' ,
                restart_mode = 'from_scratch' ,
                      outdir = '/home/elena/AEP_DFT/DFT/tmp/vib' ,
                  pseudo_dir = '/home/elena/qe-6.7/pseudo/' ,
                      prefix = 'Pb',
                      wf_collect = .true.
 /
 &SYSTEM
                       ibrav = 2,
                   celldm(1) = 9.2225583816,
                         nat = 1,
                        ntyp = 1,
                     ecutwfc = 70 ,
                     ecutrho = 560 ,
                 occupations = 'smearing' ,
                     degauss = 0.04 ,
		    smearing ='mp',
 /
 &ELECTRONS
                    conv_thr = 1.0d-9 ,
                    mixing_beta = 0.7
 /
ATOMIC_SPECIES
   Pb  207.20000  Pb.pbe-dn-rrkjus_psl.1.0.0.UPF
ATOMIC_POSITIONS crystal 
   Pb      0.000000000    0.000000000    0.000000000    
K_POINTS automatic 
  18 18 18   0 0 0 
