 &CONTROL
                       title = 'Lead' ,
                 calculation = 'bands' ,
                restart_mode = 'from_scratch' ,
                      outdir = '/home/elena/AEP_DFT/DFT/tmp/bands' ,
                  pseudo_dir = '/home/elena/qe-6.7/pseudo/' ,
                      prefix = 'Pb',
                      wf_collect = .true.
 /
 &SYSTEM
                       ibrav = 2,
                   celldm(1) = 9.2225583816,
                         nat = 1,
                        ntyp = 1,
                     ecutwfc = 70 ,
                     ecutrho = 560 ,
                 occupations = 'smearing' ,
                     degauss = 0.02 ,
		    smearing ='mp',
 /
 &ELECTRONS
                    conv_thr = 1.0d-9,
              diago_full_acc = .true.
 /
ATOMIC_SPECIES
   Pb  207.20000  Pb.pbe-dn-rrkjus_psl.1.0.0.UPF
ATOMIC_POSITIONS crystal 
   Pb      0.000000000    0.000000000    0.000000000    
K_POINTS crystal_b
 7
   0.0000000000     0.0000000000     0.0000000000     100
   0.5000000000     0.5000000000     0.0000000000     70
   0.7500000000     0.5000000000     0.2500000000     50
   0.5000000000     0.5000000000     0.5000000000     70
   0.0000000000     0.0000000000     0.0000000000     100
   0.7500000000     0.3750000000     0.3750000000     50
   0.5000000000     0.5000000000     0.0000000000     70
