&DOS
outdir = '/home/elena/AEP_DFT/DFT/tmp/bands'
prefix = 'Pb'
fildos = 'pb_8.dos'
/
